(set-logic HORN)
(declare-datatypes ((Nat_127 0)) (((Z_362 ) (S_127 (projS_122 Nat_127)))))
(declare-fun diseqNat_127 (Nat_127 Nat_127) Bool)
(declare-fun projS_123 (Nat_127 Nat_127) Bool)
(declare-fun isZ_127 (Nat_127) Bool)
(declare-fun isS_127 (Nat_127) Bool)
(assert (forall ((x_3541 Nat_127))
	(projS_123 x_3541 (S_127 x_3541))))
(assert (isZ_127 Z_362))
(assert (forall ((x_3543 Nat_127))
	(isS_127 (S_127 x_3543))))
(assert (forall ((x_3544 Nat_127))
	(diseqNat_127 Z_362 (S_127 x_3544))))
(assert (forall ((x_3545 Nat_127))
	(diseqNat_127 (S_127 x_3545) Z_362)))
(assert (forall ((x_3546 Nat_127) (x_3547 Nat_127))
	(=> (diseqNat_127 x_3546 x_3547)
	    (diseqNat_127 (S_127 x_3546) (S_127 x_3547)))))
(declare-fun x_3531 (Nat_127 Nat_127 Nat_127) Bool)
(assert (forall ((x_3534 Nat_127) (x_3533 Nat_127) (z_363 Nat_127))
	(=> (x_3531 x_3534 z_363 x_3533)
	    (x_3531 x_3534 (S_127 z_363) (S_127 x_3533)))))
(assert (forall ((z_363 Nat_127))
	(x_3531 (S_127 z_363) (S_127 z_363) Z_362)))
(assert (forall ((y_288 Nat_127))
	(x_3531 Z_362 Z_362 y_288)))
(assert (forall ((x_3538 Nat_127) (m_12 Nat_127))
	(=>	(and true
			(diseqNat_127 x_3538 Z_362)
			(x_3531 x_3538 m_12 m_12))
		false)))
(check-sat)
